NAME          DCAP_2_4_3_300_SS276
ROWS
 N  OBJ
 L  CON1
 L  CON2
 L  CON3
 L  CON4
 L  CON5
 L  CON6
 L  CON7
 L  CON8
 L  CON9
 L  CON10
 L  CON11
 L  CON12
 E  CON13
 E  CON14
 E  CON15
 E  CON16
 E  CON17
 E  CON18
 E  CON19
 E  CON20
 E  CON21
 E  CON22
 E  CON23
 E  CON24
COLUMNS
    x[1,1]    OBJ       6.180167      CON1      1.000000    
    x[1,1]    CON7      -1.000000     CON8      -1.000000   
    x[1,1]    CON9      -1.000000   
    x[1,2]    OBJ       6.563535      CON2      1.000000    
    x[1,2]    CON8      -1.000000     CON9      -1.000000   
    x[1,3]    OBJ       7.443064      CON3      1.000000    
    x[1,3]    CON9      -1.000000   
    x[2,1]    OBJ       6.732585      CON4      1.000000    
    x[2,1]    CON10     -1.000000     CON11     -1.000000   
    x[2,1]    CON12     -1.000000   
    x[2,2]    OBJ       5.039546      CON5      1.000000    
    x[2,2]    CON11     -1.000000     CON12     -1.000000   
    x[2,3]    OBJ       6.054841      CON6      1.000000    
    x[2,3]    CON12     -1.000000   
    MARKER    'MARKER'                'INTORG'
    u[1,1]    OBJ       48.076654     CON1      -1.000000   
    u[1,2]    OBJ       20.066487     CON2      -1.000000   
    u[1,3]    OBJ       32.230043     CON3      -1.000000   
    u[2,1]    OBJ       49.996186     CON4      -1.000000   
    u[2,2]    OBJ       49.466655     CON5      -1.000000   
    u[2,3]    OBJ       27.484319     CON6      -1.000000   
    y[1,1,1]  OBJ       8.806877      CON7      1.236011    
    y[1,1,1]  CON13     1.000000    
    y[1,1,2]  OBJ       8.277968      CON8      0.969944    
    y[1,1,2]  CON14     1.000000    
    y[1,1,3]  OBJ       7.795328      CON9      1.327706    
    y[1,1,3]  CON15     1.000000    
    y[1,2,1]  OBJ       6.845444      CON7      1.176019    
    y[1,2,1]  CON16     1.000000    
    y[1,2,2]  OBJ       6.362522      CON8      0.853363    
    y[1,2,2]  CON17     1.000000    
    y[1,2,3]  OBJ       9.670938      CON9      0.663760    
    y[1,2,3]  CON18     1.000000    
    y[1,3,1]  OBJ       6.395844      CON7      1.239644    
    y[1,3,1]  CON19     1.000000    
    y[1,3,2]  OBJ       5.163883      CON8      1.244965    
    y[1,3,2]  CON20     1.000000    
    y[1,3,3]  OBJ       6.382012      CON9      1.189006    
    y[1,3,3]  CON21     1.000000    
    y[1,4,1]  OBJ       5.804065      CON7      1.045019    
    y[1,4,1]  CON22     1.000000    
    y[1,4,2]  OBJ       8.820943      CON8      0.738696    
    y[1,4,2]  CON23     1.000000    
    y[1,4,3]  OBJ       7.995449      CON9      1.378048    
    y[1,4,3]  CON24     1.000000    
    y[2,1,1]  OBJ       6.028830      CON10     1.236011    
    y[2,1,1]  CON13     1.000000    
    y[2,1,2]  OBJ       5.086897      CON11     0.969944    
    y[2,1,2]  CON14     1.000000    
    y[2,1,3]  OBJ       6.696609      CON12     1.327706    
    y[2,1,3]  CON15     1.000000    
    y[2,2,1]  OBJ       6.095524      CON10     1.176019    
    y[2,2,1]  CON16     1.000000    
    y[2,2,2]  OBJ       8.171959      CON11     0.853363    
    y[2,2,2]  CON17     1.000000    
    y[2,2,3]  OBJ       6.796646      CON12     0.663760    
    y[2,2,3]  CON18     1.000000    
    y[2,3,1]  OBJ       9.236698      CON10     1.239644    
    y[2,3,1]  CON19     1.000000    
    y[2,3,2]  OBJ       6.522259      CON11     1.244965    
    y[2,3,2]  CON20     1.000000    
    y[2,3,3]  OBJ       7.818399      CON12     1.189006    
    y[2,3,3]  CON21     1.000000    
    y[2,4,1]  OBJ       6.562781      CON10     1.045019    
    y[2,4,1]  CON22     1.000000    
    y[2,4,2]  OBJ       8.182442      CON11     0.738696    
    y[2,4,2]  CON23     1.000000    
    y[2,4,3]  OBJ       6.189793      CON12     1.378048    
    y[2,4,3]  CON24     1.000000    
    z[1,1]    OBJ       668.613453    CON13     1.000000    
    z[1,2]    OBJ       965.572882    CON14     1.000000    
    z[1,3]    OBJ       954.484583    CON15     1.000000    
    z[2,1]    OBJ       791.804728    CON16     1.000000    
    z[2,2]    OBJ       903.292019    CON17     1.000000    
    z[2,3]    OBJ       677.315280    CON18     1.000000    
    z[3,1]    OBJ       843.315639    CON19     1.000000    
    z[3,2]    OBJ       813.631536    CON20     1.000000    
    z[3,3]    OBJ       666.203211    CON21     1.000000    
    z[4,1]    OBJ       531.539907    CON22     1.000000    
    z[4,2]    OBJ       889.413120    CON23     1.000000    
    z[4,3]    OBJ       758.460946    CON24     1.000000    
    MARKER    'MARKER'                 'INTEND'
RHS
    RHS       CON1      -0.000000     CON2      -0.000000   
    RHS       CON3      -0.000000     CON4      -0.000000   
    RHS       CON5      -0.000000     CON6      -0.000000   
    RHS       CON7      -0.000000     CON8      -0.000000   
    RHS       CON9      -0.000000     CON10     -0.000000   
    RHS       CON11     -0.000000     CON12     -0.000000   
    RHS       CON13     1.000000      CON14     1.000000    
    RHS       CON15     1.000000      CON16     1.000000    
    RHS       CON17     1.000000      CON18     1.000000    
    RHS       CON19     1.000000      CON20     1.000000    
    RHS       CON21     1.000000      CON22     1.000000    
    RHS       CON23     1.000000      CON24     1.000000    
BOUNDS
 BV BOUND     u[1,1]  
 BV BOUND     u[1,2]  
 BV BOUND     u[1,3]  
 BV BOUND     u[2,1]  
 BV BOUND     u[2,2]  
 BV BOUND     u[2,3]  
 BV BOUND     y[1,1,1]
 BV BOUND     y[1,1,2]
 BV BOUND     y[1,1,3]
 BV BOUND     y[1,2,1]
 BV BOUND     y[1,2,2]
 BV BOUND     y[1,2,3]
 BV BOUND     y[1,3,1]
 BV BOUND     y[1,3,2]
 BV BOUND     y[1,3,3]
 BV BOUND     y[1,4,1]
 BV BOUND     y[1,4,2]
 BV BOUND     y[1,4,3]
 BV BOUND     y[2,1,1]
 BV BOUND     y[2,1,2]
 BV BOUND     y[2,1,3]
 BV BOUND     y[2,2,1]
 BV BOUND     y[2,2,2]
 BV BOUND     y[2,2,3]
 BV BOUND     y[2,3,1]
 BV BOUND     y[2,3,2]
 BV BOUND     y[2,3,3]
 BV BOUND     y[2,4,1]
 BV BOUND     y[2,4,2]
 BV BOUND     y[2,4,3]
 BV BOUND     z[1,1]  
 BV BOUND     z[1,2]  
 BV BOUND     z[1,3]  
 BV BOUND     z[2,1]  
 BV BOUND     z[2,2]  
 BV BOUND     z[2,3]  
 BV BOUND     z[3,1]  
 BV BOUND     z[3,2]  
 BV BOUND     z[3,3]  
 BV BOUND     z[4,1]  
 BV BOUND     z[4,2]  
 BV BOUND     z[4,3]  
ENDATA
